c minVC: 16
p edge 30 36
e 3 5
e 4 6
e 4 9
e 6 9
e 3 11
e 5 11
e 8 11
e 12 13
e 13 14
e 14 16
e 7 18
e 2 19
e 10 19
e 2 20
e 2 21
e 8 22
e 15 23
e 5 24
e 8 24
e 11 24
e 12 25
e 16 25
e 7 26
e 17 26
e 18 26
e 1 27
e 9 27
e 3 28
e 5 28
e 10 28
e 11 28
e 10 29
e 14 29
e 8 30
e 22 30
e 24 30
